70
1 23 800
2 135 661
3 664 677
4 564 593
5 202 31
6 293 250
7 145 852
8 284 529
9 11 839
10 635 871
11 895 65
12 127 168
13 4 99
14 482 490
15 885 335
16 416 398
17 427 928
18 754 390
19 308 23
20 234 800
21 635 759
22 358 442
23 776 188
24 584 806
25 362 207
26 149 312
27 289 957
28 365 886
29 793 865
30 515 927
31 324 686
32 117 287
33 567 826
34 758 266
35 760 288
36 418 22
37 270 212
38 338 622
39 233 436
40 433 965
41 324 117
42 53 288
43 113 468
44 194 23
45 747 559
46 868 5
47 345 10
48 739 733
49 234 614
50 284 840
51 932 463
52 262 92
53 498 565
54 130 63
55 893 198
56 294 805
57 385 993
58 659 750
59 164 158
60 590 308
61 875 813
62 228 547
63 365 20
64 266 817
65 380 324
66 588 232
67 977 910
68 340 866
69 943 978
70 981 677
